n = 10;
m = 3;
d_raw = [| 44, 57, 41, 57, 39, 17, 27, 29, 68, 67,
         | 22, 41, 54, 26, 50, 63, 60, 57, 55, 39
         | 58, 41, 30, 57, 10, 33, 35, 36, 50, 47 |];
p_raw = [2, 1, 2, 2, 1, 2, 2, 0, 2, 2];
P_raw = [| |];